c clasp version 2.1.1
c Reading from pb_300_09.cnf
c Solving...
s UNKNOWN

c TIME LIMIT    : 1
c Models        : 0+    
c Time          : 18000.000s (Solving: 17998.47s 1st Model: 0.00s Unsat: 0.00s)
c CPU Time      : 17971.360s
c Choices       : 72392224
c Conflicts     : 31014493
c Restarts      : 39487  (Average: 785.44 Last: 31000672)

c Variables     : 370690 (Eliminated: 116727 Frozen:    0)
c Constraints   : 462399 (Binary: 63.1% Ternary: 36.0% Other:  0.9%)
c Lemmas        : 31014493 (Binary:  0.0% Ternary:  0.1% Other: 99.9%)
c   Conflict    : 31014493 (Average Length: 90.2) 
c   Loop        : 0      (Average Length: 0.0) 
c   Other       : 0      (Average Length: 0.0)
c   Deleted     : 30865801
